(set-logic QF_LIA)
(declare-fun x0 () Int)
(declare-fun x1 () Int)
(declare-fun x2 () Int)
(declare-fun x3 () Int)
(declare-fun x4 () Int)
(declare-fun x5 () Int)
(declare-fun x6 () Int)
(declare-fun x7 () Int)
(declare-fun x8 () Int)
(declare-fun x9 () Int)
(declare-fun A0 () Bool)
(declare-fun A1 () Bool)
(declare-fun A2 () Bool)
(declare-fun A3 () Bool)
(declare-fun A4 () Bool)
(declare-fun A5 () Bool)
(declare-fun A6 () Bool)
(declare-fun A7 () Bool)
(declare-fun A8 () Bool)
(declare-fun A9 () Bool)
(assert (let ((.def_0 (not A6))) (let ((.def_1 (not A5))) (let ((.def_2 (= .def_1 .def_0))) (let ((.def_3 (not .def_2))) (let ((.def_4 (not A1))) (let ((.def_5 (and A6 .def_4))) (let ((.def_6 (not .def_5))) (let ((.def_7 (and .def_6 .def_3))) (let ((.def_8 (not .def_7))) (let ((.def_9 (* 1 x9))) (let ((.def_10 (< .def_9 (- 1)))) (let ((.def_11 (not .def_10))) (let ((.def_12 (* 1 x5))) (let ((.def_13 (* (- 1) x7))) (let ((.def_14 (+ .def_13 .def_12))) (let ((.def_15 (< .def_14 (- 1)))) (let ((.def_16 (not .def_15))) (let ((.def_17 (and .def_16 .def_11))) (let ((.def_18 (* (- 1) x5))) (let ((.def_19 (* 1 x6))) (let ((.def_20 (+ .def_19 .def_18))) (let ((.def_21 (< .def_20 1))) (let ((.def_22 (< .def_9 1))) (let ((.def_23 (and .def_22 .def_21))) (let ((.def_24 (not .def_23))) (let ((.def_25 (and .def_24 .def_17))) (let ((.def_26 (not .def_25))) (let ((.def_27 (and .def_26 .def_8))) (let ((.def_28 (not .def_27))) (let ((.def_29 (not A8))) (let ((.def_30 (* (- 1) x1))) (let ((.def_31 (* 1 x0))) (let ((.def_32 (+ .def_31 .def_30))) (let ((.def_33 (< .def_32 (- 1)))) (let ((.def_34 (not .def_33))) (let ((.def_35 (or .def_34 .def_29))) (let ((.def_36 (or A6 A6))) (let ((.def_37 (and .def_36 .def_35))) (let ((.def_38 (* 1 x1))) (let ((.def_39 (< .def_38 1))) (let ((.def_40 (not .def_39))) (let ((.def_41 (and .def_1 .def_40))) (let ((.def_42 (not A0))) (let ((.def_43 (* 1 x7))) (let ((.def_44 (< .def_43 1))) (let ((.def_45 (= .def_44 .def_42))) (let ((.def_46 (not .def_45))) (let ((.def_47 (and .def_46 .def_41))) (let ((.def_48 (not .def_47))) (let ((.def_49 (and .def_48 .def_37))) (let ((.def_50 (and .def_49 .def_28))) (let ((.def_51 (not .def_50))) (let ((.def_52 (and A7 A0))) (let ((.def_53 (not .def_52))) (let ((.def_54 (+ .def_13 .def_19))) (let ((.def_55 (< .def_54 (- 1)))) (let ((.def_56 (or .def_55 A4))) (let ((.def_57 (or .def_56 .def_53))) (let ((.def_58 (* 1 x2))) (let ((.def_59 (+ .def_12 .def_58))) (let ((.def_60 (< .def_59 1))) (let ((.def_61 (not .def_60))) (let ((.def_62 (or A4 .def_61))) (let ((.def_63 (not .def_62))) (let ((.def_64 (* (- 1) x4))) (let ((.def_65 (+ .def_9 .def_64))) (let ((.def_66 (< .def_65 (- 1)))) (let ((.def_67 (* (- 1) x8))) (let ((.def_68 (< .def_67 (- 1)))) (let ((.def_69 (not .def_68))) (let ((.def_70 (or .def_69 .def_66))) (let ((.def_71 (not .def_70))) (let ((.def_72 (and .def_71 .def_63))) (let ((.def_73 (not .def_72))) (let ((.def_74 (and .def_73 .def_57))) (let ((.def_75 (* 1 x3))) (let ((.def_76 (* (- 1) x0))) (let ((.def_77 (+ .def_76 .def_75))) (let ((.def_78 (< .def_77 (- 1)))) (let ((.def_79 (and .def_78 .def_69))) (let ((.def_80 (not .def_79))) (let ((.def_81 (and A3 .def_4))) (let ((.def_82 (not .def_81))) (let ((.def_83 (and .def_82 .def_80))) (let ((.def_84 (* (- 1) x2))) (let ((.def_85 (< .def_84 1))) (let ((.def_86 (or A8 .def_85))) (let ((.def_87 (not .def_86))) (let ((.def_88 (or .def_42 A5))) (let ((.def_89 (not .def_88))) (let ((.def_90 (or .def_89 .def_87))) (let ((.def_91 (= .def_90 .def_83))) (let ((.def_92 (not .def_91))) (let ((.def_93 (and .def_92 .def_74))) (let ((.def_94 (not .def_93))) (let ((.def_95 (or .def_94 .def_51))) (let ((.def_96 (+ .def_43 .def_30))) (let ((.def_97 (< .def_96 (- 1)))) (let ((.def_98 (not .def_97))) (let ((.def_99 (< .def_18 1))) (let ((.def_100 (not .def_99))) (let ((.def_101 (and .def_100 .def_98))) (let ((.def_102 (not .def_101))) (let ((.def_103 (not A4))) (let ((.def_104 (or .def_103 A2))) (let ((.def_105 (and .def_104 .def_102))) (let ((.def_106 (+ .def_12 .def_43))) (let ((.def_107 (< .def_106 (- 1)))) (let ((.def_108 (* (- 1) x6))) (let ((.def_109 (+ .def_108 .def_84))) (let ((.def_110 (< .def_109 (- 1)))) (let ((.def_111 (not .def_110))) (let ((.def_112 (and .def_111 .def_107))) (let ((.def_113 (not .def_112))) (let ((.def_114 (* (- 1) x9))) (let ((.def_115 (< .def_114 1))) (let ((.def_116 (or .def_115 A9))) (let ((.def_117 (not .def_116))) (let ((.def_118 (or .def_117 .def_113))) (let ((.def_119 (or .def_118 .def_105))) (let ((.def_120 (< .def_76 1))) (let ((.def_121 (not .def_120))) (let ((.def_122 (< .def_30 (- 1)))) (let ((.def_123 (or .def_122 .def_121))) (let ((.def_124 (+ .def_9 .def_75))) (let ((.def_125 (< .def_124 1))) (let ((.def_126 (not .def_125))) (let ((.def_127 (and .def_126 A9))) (let ((.def_128 (not .def_127))) (let ((.def_129 (and .def_128 .def_123))) (let ((.def_130 (* 1 x4))) (let ((.def_131 (< .def_130 (- 1)))) (let ((.def_132 (not .def_131))) (let ((.def_133 (and .def_132 A5))) (let ((.def_134 (not .def_133))) (let ((.def_135 (+ .def_76 .def_67))) (let ((.def_136 (< .def_135 (- 1)))) (let ((.def_137 (and .def_42 .def_136))) (let ((.def_138 (and .def_137 .def_134))) (let ((.def_139 (or .def_138 .def_129))) (let ((.def_140 (not .def_139))) (let ((.def_141 (and .def_140 .def_119))) (let ((.def_142 (* (- 1) x3))) (let ((.def_143 (+ .def_142 .def_19))) (let ((.def_144 (< .def_143 1))) (let ((.def_145 (not A9))) (let ((.def_146 (and .def_145 .def_144))) (let ((.def_147 (not .def_146))) (let ((.def_148 (< .def_12 (- 1)))) (let ((.def_149 (not .def_148))) (let ((.def_150 (< .def_142 (- 1)))) (let ((.def_151 (or .def_150 .def_149))) (let ((.def_152 (not .def_151))) (let ((.def_153 (and .def_152 .def_147))) (let ((.def_154 (or A3 .def_39))) (let ((.def_155 (not .def_154))) (let ((.def_156 (or .def_29 .def_1))) (let ((.def_157 (not .def_156))) (let ((.def_158 (and .def_157 .def_155))) (let ((.def_159 (and .def_158 .def_153))) (let ((.def_160 (< .def_64 1))) (let ((.def_161 (not .def_160))) (let ((.def_162 (or A1 .def_161))) (let ((.def_163 (< .def_43 (- 1)))) (let ((.def_164 (< .def_84 (- 1)))) (let ((.def_165 (not .def_164))) (let ((.def_166 (= .def_165 .def_163))) (let ((.def_167 (or .def_166 .def_162))) (let ((.def_168 (< .def_13 (- 1)))) (let ((.def_169 (< .def_18 (- 1)))) (let ((.def_170 (= .def_169 .def_168))) (let ((.def_171 (not .def_170))) (let ((.def_172 (< .def_64 (- 1)))) (let ((.def_173 (or .def_172 .def_44))) (let ((.def_174 (or .def_173 .def_171))) (let ((.def_175 (and .def_174 .def_167))) (let ((.def_176 (and .def_175 .def_159))) (let ((.def_177 (and .def_176 .def_141))) (let ((.def_178 (not .def_177))) (let ((.def_179 (or .def_178 .def_95))) (let ((.def_180 (not .def_179))) (let ((.def_181 (or A0 .def_1))) (let ((.def_182 (not .def_181))) (let ((.def_183 (and .def_169 A8))) (let ((.def_184 (or .def_183 .def_182))) (let ((.def_185 (not .def_184))) (let ((.def_186 (and .def_1 A6))) (let ((.def_187 (< .def_31 (- 1)))) (let ((.def_188 (not .def_187))) (let ((.def_189 (or .def_188 A8))) (let ((.def_190 (not .def_189))) (let ((.def_191 (or .def_190 .def_186))) (let ((.def_192 (not .def_191))) (let ((.def_193 (and .def_192 .def_185))) (let ((.def_194 (not .def_193))) (let ((.def_195 (< .def_19 (- 1)))) (let ((.def_196 (not .def_195))) (let ((.def_197 (and .def_29 .def_196))) (let ((.def_198 (not .def_197))) (let ((.def_199 (+ .def_130 .def_76))) (let ((.def_200 (< .def_199 (- 1)))) (let ((.def_201 (or .def_200 .def_195))) (let ((.def_202 (and .def_201 .def_198))) (let ((.def_203 (* 1 x8))) (let ((.def_204 (+ .def_203 .def_114))) (let ((.def_205 (< .def_204 1))) (let ((.def_206 (+ .def_13 .def_38))) (let ((.def_207 (< .def_206 1))) (let ((.def_208 (or .def_207 .def_205))) (let ((.def_209 (+ .def_58 .def_38))) (let ((.def_210 (< .def_209 (- 1)))) (let ((.def_211 (and .def_0 .def_210))) (let ((.def_212 (or .def_211 .def_208))) (let ((.def_213 (or .def_212 .def_202))) (let ((.def_214 (and .def_213 .def_194))) (let ((.def_215 (not .def_214))) (let ((.def_216 (+ .def_43 .def_38))) (let ((.def_217 (< .def_216 (- 1)))) (let ((.def_218 (not .def_217))) (let ((.def_219 (not A2))) (let ((.def_220 (or .def_219 .def_218))) (let ((.def_221 (and .def_103 .def_145))) (let ((.def_222 (not .def_221))) (let ((.def_223 (= .def_222 .def_220))) (let ((.def_224 (< .def_13 1))) (let ((.def_225 (+ .def_64 .def_9))) (let ((.def_226 (< .def_225 1))) (let ((.def_227 (and .def_226 .def_224))) (let ((.def_228 (not .def_227))) (let ((.def_229 (not A3))) (let ((.def_230 (or .def_0 .def_229))) (let ((.def_231 (and .def_230 .def_228))) (let ((.def_232 (or .def_231 .def_223))) (let ((.def_233 (not .def_232))) (let ((.def_234 (not .def_85))) (let ((.def_235 (+ .def_58 .def_76))) (let ((.def_236 (< .def_235 1))) (let ((.def_237 (and .def_236 .def_234))) (let ((.def_238 (not .def_237))) (let ((.def_239 (< .def_130 1))) (let ((.def_240 (not .def_239))) (let ((.def_241 (and A9 .def_240))) (let ((.def_242 (not .def_241))) (let ((.def_243 (or .def_242 .def_238))) (let ((.def_244 (+ .def_203 .def_31))) (let ((.def_245 (< .def_244 (- 1)))) (let ((.def_246 (not .def_245))) (let ((.def_247 (+ .def_19 .def_130))) (let ((.def_248 (< .def_247 (- 1)))) (let ((.def_249 (not .def_248))) (let ((.def_250 (and .def_249 .def_246))) (let ((.def_251 (not .def_250))) (let ((.def_252 (< .def_38 (- 1)))) (let ((.def_253 (not .def_252))) (let ((.def_254 (and .def_253 .def_4))) (let ((.def_255 (or .def_254 .def_251))) (let ((.def_256 (or .def_255 .def_243))) (let ((.def_257 (= .def_256 .def_233))) (let ((.def_258 (not .def_257))) (let ((.def_259 (= .def_258 .def_215))) (let ((.def_260 (+ .def_76 .def_30))) (let ((.def_261 (< .def_260 (- 1)))) (let ((.def_262 (or .def_261 .def_149))) (let ((.def_263 (not .def_262))) (let ((.def_264 (+ .def_203 .def_75))) (let ((.def_265 (< .def_264 (- 1)))) (let ((.def_266 (and A3 .def_265))) (let ((.def_267 (and .def_266 .def_263))) (let ((.def_268 (+ .def_64 .def_108))) (let ((.def_269 (< .def_268 (- 1)))) (let ((.def_270 (or .def_29 .def_269))) (let ((.def_271 (+ .def_142 .def_12))) (let ((.def_272 (< .def_271 1))) (let ((.def_273 (or .def_196 .def_272))) (let ((.def_274 (not .def_273))) (let ((.def_275 (and .def_274 .def_270))) (let ((.def_276 (or .def_275 .def_267))) (let ((.def_277 (not .def_276))) (let ((.def_278 (+ .def_38 .def_13))) (let ((.def_279 (< .def_278 (- 1)))) (let ((.def_280 (not .def_279))) (let ((.def_281 (not .def_236))) (let ((.def_282 (or .def_281 .def_280))) (let ((.def_283 (< .def_76 (- 1)))) (let ((.def_284 (not .def_283))) (let ((.def_285 (and .def_284 A0))) (let ((.def_286 (not .def_285))) (let ((.def_287 (and .def_286 .def_282))) (let ((.def_288 (not .def_287))) (let ((.def_289 (and .def_1 .def_103))) (let ((.def_290 (+ .def_84 .def_18))) (let ((.def_291 (< .def_290 (- 1)))) (let ((.def_292 (not .def_291))) (let ((.def_293 (= .def_0 .def_292))) (let ((.def_294 (and .def_293 .def_289))) (let ((.def_295 (or .def_294 .def_288))) (let ((.def_296 (and .def_295 .def_277))) (let ((.def_297 (not .def_296))) (let ((.def_298 (+ .def_203 .def_130))) (let ((.def_299 (< .def_298 (- 1)))) (let ((.def_300 (not .def_299))) (let ((.def_301 (or .def_219 .def_300))) (let ((.def_302 (< .def_142 1))) (let ((.def_303 (not .def_302))) (let ((.def_304 (or A6 .def_303))) (let ((.def_305 (not .def_304))) (let ((.def_306 (or .def_305 .def_301))) (let ((.def_307 (not .def_306))) (let ((.def_308 (+ .def_203 .def_38))) (let ((.def_309 (< .def_308 1))) (let ((.def_310 (not .def_309))) (let ((.def_311 (= .def_310 A7))) (let ((.def_312 (not .def_311))) (let ((.def_313 (and .def_195 .def_85))) (let ((.def_314 (or .def_313 .def_312))) (let ((.def_315 (not .def_314))) (let ((.def_316 (or .def_315 .def_307))) (let ((.def_317 (not .def_150))) (let ((.def_318 (= A2 .def_317))) (let ((.def_319 (not .def_318))) (let ((.def_320 (+ .def_114 .def_64))) (let ((.def_321 (< .def_320 (- 1)))) (let ((.def_322 (or .def_165 .def_321))) (let ((.def_323 (or .def_322 .def_319))) (let ((.def_324 (not .def_323))) (let ((.def_325 (or .def_1 A0))) (let ((.def_326 (not .def_325))) (let ((.def_327 (= .def_0 A0))) (let ((.def_328 (and .def_327 .def_326))) (let ((.def_329 (and .def_328 .def_324))) (let ((.def_330 (not .def_329))) (let ((.def_331 (or .def_330 .def_316))) (let ((.def_332 (or .def_331 .def_297))) (let ((.def_333 (or .def_332 .def_259))) (let ((.def_334 (or .def_333 .def_180))) (let ((.def_335 (<= x9 1))) (let ((.def_336 (<= 0 x9))) (let ((.def_337 (<= x8 1))) (let ((.def_338 (<= 0 x8))) (let ((.def_339 (<= x7 1))) (let ((.def_340 (<= 0 x7))) (let ((.def_341 (<= x6 1))) (let ((.def_342 (<= 0 x6))) (let ((.def_343 (<= x5 1))) (let ((.def_344 (<= 0 x5))) (let ((.def_345 (<= x4 1))) (let ((.def_346 (<= 0 x4))) (let ((.def_347 (<= x3 1))) (let ((.def_348 (<= 0 x3))) (let ((.def_349 (<= x2 1))) (let ((.def_350 (<= 0 x2))) (let ((.def_351 (<= x1 1))) (let ((.def_352 (<= 0 x1))) (let ((.def_353 (<= x0 1))) (let ((.def_354 (<= 0 x0))) (let ((.def_355 (and .def_354 .def_353 .def_352 .def_351 .def_350 .def_349 .def_348 .def_347 .def_346 .def_345 .def_344 .def_343 .def_342 .def_341 .def_340 .def_339 .def_338 .def_337 .def_336 .def_335 .def_334))) .def_355)))))))))))))))))))))))))))))))))))))))))))))))))))))))))))))))))))))))))))))))))))))))))))))))))))))))))))))))))))))))))))))))))))))))))))))))))))))))))))))))))))))))))))))))))))))))))))))))))))))))))))))))))))))))))))))))))))))))))))))))))))))))))))))))))))))))))))))))))))))))))))))))))))))))))))))))))))))))))))))))))))))))))))))))))))))))))))))))))))))
(check-sat)
